19	20	21	22	23	24	25	26	27	28	29	30	31	32	33	34	35
0745	0745	0746	0747	0748	0748	0749	0749	0750	0752	0755	0756	0758	0759	0801	0802	0805
0805	0805	0806	0807	0808	0808	0809	0809	0810	0812	0815	0816	0818	0819	0821	0822	0825
0825	0825	0826	0827	0828	0828	0829	0829	0830	0832	0835	0836	0838	0839	0841	0842	0845
0845	0845	0846	0847	0848	0848	0849	0849	0850	0852	0855	0856	0858	0859	0901	0902	0905
0905	0905	0906	0907	0908	0908	0909	0909	0910	0912	0915	0916	0918	0919	0921	0922	0925
0925	0925	0926	0927	0928	0928	0929	0929	0930	0932	0935	0936	0938	0939	0941	0942	0945
0945	0945	0946	0947	0948	0948	0949	0949	0950	0952	0955	0956	0958	0959	1001	1002	1005
1005	1005	1006	1007	1008	1008	1009	1009	1010	1012	1015	1016	1018	1019	1021	1022	1025
1025	1025	1026	1027	1028	1028	1029	1029	1030	1032	1035	1036	1038	1039	1041	1042	1045
1045	1045	1046	1047	1048	1048	1049	1049	1050	1052	1055	1056	1058	1059	1101	1102	1105
1105	1105	1106	1107	1108	1108	1109	1109	1110	1112	1115	1116	1118	1119	1121	1122	1125
1125	1125	1126	1127	1128	1128	1129	1129	1130	1132	1135	1136	1138	1139	1141	1142	1145
1145	1145	1146	1147	1148	1148	1149	1149	1150	1152	1155	1156	1158	1159	1201	1202	1205
1205	1205	1206	1207	1208	1208	1209	1209	1210	1212	1215	1216	1218	1219	1221	1222	1225
1225	1225	1226	1227	1228	1228	1229	1229	1230	1232	1235	1236	1238	1239	1241	1242	1245
1245	1245	1246	1247	1248	1248	1249	1249	1250	1252	1255	1256	1258	1259	1301	1302	1305
1305	1305	1306	1307	1308	1308	1309	1309	1310	1312	1315	1316	1318	1319	1321	1322	1325
1325	1325	1326	1327	1328	1328	1329	1329	1330	1332	1335	1336	1338	1339	1341	1342	1345
1345	1345	1346	1347	1348	1348	1349	1349	1350	1352	1355	1356	1358	1359	1401	1402	1405
1405	1405	1406	1407	1408	1408	1409	1409	1410	1412	1415	1416	1418	1419	1421	1422	1425
1425	1425	1426	1427	1428	1428	1429	1429	1430	1432	1435	1436	1438	1439	1441	1442	1445
1445	1445	1446	1447	1448	1448	1449	1449	1450	1452	1455	1456	1458	1459	1501	1502	1505
1505	1505	1506	1507	1508	1508	1509	1509	1510	1512	1515	1516	1518	1519	1521	1522	1525
1525	1525	1526	1527	1528	1528	1529	1529	1530	1532	1535	1536	1538	1539	1541	1542	1545
1545	1545	1546	1547	1548	1548	1549	1549	1550	1552	1555	1556	1558	1559	1601	1602	1605
1605	1605	1606	1607	1608	1608	1609	1609	1610	1612	1615	1616	1618	1619	1621	1622	1625
1625	1625	1626	1627	1628	1628	1629	1629	1630	1632	1635	1636	1638	1639	1641	1642	1645
1645	1645	1646	1647	1648	1648	1649	1649	1650	1652	1655	1656	1658	1659	1701	1702	1705
1705	1705	1706	1707	1708	1708	1709	1709	1710	1712	1715	1716	1718	1719	1721	1722	1725
1725	1725	1726	1727	1728	1728	1729	1729	1730	1732	1735	1736	1738	1739	1741	1742	1745
1745	1745	1746	1747	1748	1748	1749	1749	1750	1752	1755	1756	1758	1759	1801	1802	1805
1805	1805	1806	1807	1808	1808	1809	1809	1810	1812	1815	1816	1818	1819	1821	1822	1825
1825	1825	1826	1827	1828	1828	1829	1829	1830	1832	1835	1836	1838	1839	1841	1842	1845
1845	1845	1846	1847	1848	1848	1849	1849	1850	1852	1855	1856	1858	1859	1901	1902	1905
1905	1905	1906	1907	1908	1908	1909	1909	1910	1912	1915	1916	1918	1919	1921	1922	1925
1925	1925	1926	1927	1928	1928	1929	1929	1930	1932	1935	1936	1938	1939	1941	1942	1945
1945	1945	1946	1947	1948	1948	1949	1949	1950	1952	1955	1956	1958	1959	2001	2002	2005
2005	2005	2006	2007	2008	2008	2009	2009	2010	2012	2015	2016	2018	2019	2021	2022	2025
2025	2025	2026	2027	2028	2028	2029	2029	2030	2032	2035	2036	2038	2039	2041	2042	2045
2045	2045	2046	2047	2048	2048	2049	2049	2050	2052	2055	2056	2058	2059	2101	2102	2105
2105	2105	2106	2107	2108	2108	2109	2109	2110	2112	2115	2116	2118	2119	2121	2122	2125
2120	2120	2121	2121	2122	2122	2123	2123	2124	2125	2128	2129	2130	2132	2134	2135	2137
2140	2140	2141	2141	2142	2142	2143	2143	2144	2145	2148	2149	2150	2152	2154	2155	2157
2200	2200	2201	2201	2202	2202	2203	2203	2204	2205	2208	2209	2210	2212	2214	2215	2217
2220	2220	2221	2221	2222	2222	2223	2223	2224	2225	2228	2229	2230	2232	2234	2235	2237
2240	2240	2241	2241	2242	2242	2243	2243	2244	2245	2248	2249	2250	2252	2254	2255	2257
2300	2300	2301	2301	2302	2302	2303	2303	2304	2305	2308	2309	2310	2312	2314	2315	2317
2320	2320	2321	2321	2322	2322	2323	2323	2324	2325	2328	2329	2330	2332	2334	2335	2337
2340	2340	2341	2341	2342	2342	2343	2343	2344	2345	2348	2349	2350	2352	2354	2355	2357
0000	0000	0001	0001	0002	0002	0003	0003	0004	0005	0008	0009	0010	0012	0014	0015	0017
0020	0020	0021	0021	0022	0022	0023	0023	0024	0025	0028	0029	0030	0032	0034	0035	0037
0040	0040	0041	0041	0042	0042	0043	0043	0044	0045	0048	0049	0050	0052	0054	0055	0057
0100	0100	0101	0101	0102	0102	0103	0103	0104	0105	0108	0109	0110	0112	0114	0115	0117
0120	0120	0121	0121	0122	0122	0123	0123	0124	0125	0128	0129	0130	0132	0134	0135	0137
0140	0140	0141	0141	0142	0142	0143	0143	0144	0145	0148	0149	0150	0152	0154	0155	0157
0200	0200	0201	0201	0202	0202	0203	0203	0204	0205	0208	0209	0210	0212	0214	0215	0217
0220	0220	0221	0221	0222	0222	0223	0223	0224	0225	0228	0229	0230	0232	0234	0235	0237
0240	0240	0241	0241	0242	0242	0243	0243	0244	0245	0248	0249	0250	0252	0254	0255	0257
0300	0300	0301	0301	0302	0302	0303	0303	0304	0305	0308	0309	0310	0312	0314	0315	0317

